%%% static parameters %%%
timespan = 1;
Fact = [3];
Distr1 = [10];
Distr2 = [20];
Clients_N = [40];
Demand_W = [15];
Lt0 = [4];
Lt1 = [4];
SS_ = [0.85];
DS_D = [7];
K = [200];
MA = [500];
%%% dynamic parameters %%%
lost_ratio_sales_ret_th = 0.4994669971966248;
lost_ratio_sales_ret_w = 52;
lost_ratio_sales_dis_th = 0.6559012707600304;
lost_ratio_sales_dis_w = 95;
lost_ratio_sales_fac_th = 0.4174058093770776;
lost_ratio_sales_fac_w = 47;
stock_customer_MA_mean_relative_th = 0.12171952287765986;
stock_customer_MA_mean_relative_w = 12;
stock_distributor_MA_mean_relative_th = 0.3667260708704584;
stock_distributor_MA_mean_relative_w = 39;
stock_retailer_MA_mean_relative_th = 0.9304476303656974;
stock_retailer_MA_mean_relative_w = 63;
stock_factory_MA_mean_relative_th = 0.2613352036281782;
stock_factory_MA_mean_relative_w = 47;
